p cnf 15 21
-15 -14 1 0
-15 13 -7 0
-15 -9 1 0
-15 8 -3 0
-15 -7 -3 0
-15 -5 3 0
15 -3 1 0
-14 -12 10 0
14 9 -4 0
-13 11 8 0
-13 -10 -5 0
13 -5 4 0
13 -5 -1 0
-12 11 -3 0
12 -9 5 0
12 8 5 0
12 5 -1 0
11 4 -1 0
-10 -7 -4 0
10 3 -2 0
7 -2 -1 0
